# [File generated by ScopLib 0.3.0 MP bits]

SCoP

# =============================================== Global
# Language
C

# Context
0 2

# Parameter names are not provided
0

# Number of statements
1

# =============================================== Statement 1
# ----------------------------------------------  1.1 Domain
# Iteration domain
6 5
   1    1    0    0    0    ## i_0 >= 0
   1   -1    0    0   35    ## -i_0+35 >= 0
   1    0    1    0    0    ## i_1 >= 0
   1    0   -1    0   35    ## -i_1+35 >= 0
   1    0    0    1    0    ## i_2 >= 0
   1    0    0   -1   35    ## -i_2+35 >= 0

# ----------------------------------------------  1.2 Scattering
# Scattering function is provided
1
# Scattering function
7 12
   0    0    0    0    0    0    0    1    0    0    0    0    ##
   0    0    0    0    0    0    1    0    0    0    1    0    ## s6 = -k
   0    0    0    0    0    1    0    0    0    0    0    0    ##
   0    0    0    0    1    0    0    0    0   -1    0    0    ## s4 = j
   0    0    0    1    0    0    0    0    0    0    0    0    ##
   0    0    1    0    0    0    0    0   -1    0    0    0    ## s2 = i
   0    1    0    0    0    0    0    0    0    0    0    0    ##

# ----------------------------------------------  1.3 Access
# Access informations are provided
1
# Read access informations
3 5
   1  392    8    0    0    ## C[392*i_0+8*i_1]
   2  392    0    8    0    ## A[392*i_0+8*i_2]
   3    0    8  392    0    ## B[8*i_1+392*i_2]
# Write access informations
1 5
   1  392    8    0    0    ## C[392*i_0+8*i_1]

# ----------------------------------------------  1.4 Body
# Statement body is provided
1
# Original iterator names
i_0 i_1 i_2 
# Statement body
%do.body2


# =============================================== Options
