# [File generated by ScopLib 0.3.0 MP bits]

SCoP

# =============================================== Global
# Language
C

# Context
0 2

# Parameter names are not provided
0

# Number of statements
1

# =============================================== Statement 1
# ----------------------------------------------  1.1 Domain
# Iteration domain
6 5
   1    1    0    0    0    ## i_0 >= 0
   1   -1    0    0 2048    ## -i_0+2048 >= 0
   1    0    1    0    0    ## i_1 >= 0
   1    0   -1    0 2048    ## -i_1+2048 >= 0
   1    0    0    1    0    ## i_2 >= 0
   1    0    0   -1 2048    ## -i_2+2048 >= 0

# ----------------------------------------------  1.2 Scattering
# Scattering function is provided
1
# Scattering function
7 12
   0    0    0    0    0    0    0    1    0    0    0    0    ## 0
   0    0    0    0    0    0    1    0    0    0   -1    0    ## 0
   0    0    0    0    0    1    0    0    0    0    0    0    ## 0
   0    0    0    0    1    0    0    0    0   -1    0    0    ## 1
   0    0    0    1    0    0    0    0    0    0    0    0    ## i_2
   0    0    1    0    0    0    0    0   -1    0    0    0    ## i_1
   0    1    0    0    0    0    0    0    0    0    0    0    ## i_0

# ----------------------------------------------  1.3 Access
# Access informations are provided
1
# Read access informations
3 5
   1 -16488   -8    0    0    ## C[-16488*i_0-8*i_1]
   2 -16488    0   -8    0    ## A[-16488*i_0-8*i_2]
   3    0   -8 -16488    0    ## B[-8*i_1-16488*i_2]
# Write access informations
1 5
   1 -16488   -8    0    0    ## C[-16488*i_0-8*i_1]

# ----------------------------------------------  1.4 Body
# Statement body is provided
1
# Original iterator names
i_0 i_1 i_2 
# Statement body
for.body8


# =============================================== Options
