# [File generated by ScopLib 0.3.0 MP bits]

SCoP

# =============================================== Global
# Language
C

# Context
0 2

# Parameter names are not provided
0

# Number of statements
2

# =============================================== Statement 1
# ----------------------------------------------  1.1 Domain
# Iteration domain
2 3
   1    1    0    ## i_0 >= 0
   1   -1   19    ## -i_0+19 >= 0

# ----------------------------------------------  1.2 Scattering
# Scattering function is provided
1
# Scattering function
3 6
   0    0    0    1    0    0    ## 0
   0    0    1    0   -1    0    ## 1
   0    1    0    0    0    0    ## i_0

# ----------------------------------------------  1.3 Access
# Access informations are provided
1
# Read access informations
0 3
# Write access informations
1 3
   1    0    0    ## i.0[0]

# ----------------------------------------------  1.4 Body
# Statement body is provided
1
# Original iterator names
i_0 
# Statement body
do.body


# =============================================== Statement 2
# ----------------------------------------------  2.1 Domain
# Iteration domain
2 3
   1    1    0    ## i_0 >= 0
   1   -1   19    ## -i_0+19 >= 0

# ----------------------------------------------  2.2 Scattering
# Scattering function is provided
1
# Scattering function
3 6
   0    0    0    1    0   1    ## 0
   0    0    1    0   -1    0    ## 1
   0    1    0    0    0    0    ## i_0

# ----------------------------------------------  2.3 Access
# Access informations are provided
1
# Read access informations
1 3
   1    0    0    ## i.0[0]
# Write access informations
1 3
   2   -8    0    ## A[-8*i_0]

# ----------------------------------------------  2.4 Body
# Statement body is provided
1
# Original iterator names
i_0 
# Statement body
do.cond


# =============================================== Options
